p wcnf 120 240 241 
1 49 29 0 
1 -53 113 0 
1 -58 -94 0 
1 112 95 0 
1 62 -55 0 
1 -83 -74 0 
1 -96 -116 0 
1 -87 -57 0 
1 58 -40 0 
1 -62 104 0 
1 -91 15 0 
1 55 -84 0 
1 108 79 0 
1 109 46 0 
1 34 -81 0 
1 36 11 0 
1 53 -109 0 
1 87 35 0 
1 -59 19 0 
1 -109 10 0 
1 111 112 0 
1 46 -100 0 
1 -106 -114 0 
1 -84 -1 0 
1 -59 -84 0 
1 -39 8 0 
1 104 31 0 
1 49 -111 0 
1 -2 -109 0 
1 -1 59 0 
1 21 111 0 
1 117 8 0 
1 38 -93 0 
1 7 25 0 
1 26 19 0 
1 20 -50 0 
1 71 56 0 
1 -62 -77 0 
1 -110 102 0 
1 -114 75 0 
1 -28 19 0 
1 -3 -73 0 
1 71 49 0 
1 85 30 0 
1 -29 -46 0 
1 84 -85 0 
1 43 -80 0 
1 15 35 0 
1 -90 19 0 
1 51 27 0 
1 -101 -56 0 
1 107 23 0 
1 38 118 0 
1 88 43 0 
1 -19 52 0 
1 46 69 0 
1 114 27 0 
1 -57 40 0 
1 -48 11 0 
1 45 -12 0 
1 29 13 0 
1 78 60 0 
1 29 37 0 
1 -88 -100 0 
1 -116 87 0 
1 94 47 0 
1 12 -99 0 
1 110 84 0 
1 119 -96 0 
1 -42 38 0 
1 -87 -102 0 
1 -2 115 0 
1 -24 102 0 
1 56 -67 0 
1 59 39 0 
1 36 -74 0 
1 68 53 0 
1 -54 -101 0 
1 -50 -22 0 
1 43 -72 0 
1 -61 8 0 
1 52 41 0 
1 -52 -39 0 
1 -74 27 0 
1 -5 72 0 
1 115 -38 0 
1 -103 78 0 
1 -92 88 0 
1 114 95 0 
1 97 59 0 
1 -98 1 0 
1 99 -72 0 
1 -23 -40 0 
1 -96 -73 0 
1 -85 103 0 
1 69 -56 0 
1 -48 -71 0 
1 39 109 0 
1 -85 -73 0 
1 -110 116 0 
1 51 63 0 
1 -80 -108 0 
1 57 -103 0 
1 -119 -71 0 
1 5 -47 0 
1 88 -3 0 
1 -107 85 0 
1 100 -44 0 
1 -13 54 0 
1 17 75 0 
1 -40 -33 0 
1 -50 52 0 
1 117 -21 0 
1 54 -76 0 
1 85 37 0 
1 15 -11 0 
1 -3 -100 0 
1 -60 118 0 
1 -52 99 0 
1 -34 -80 0 
1 24 44 0 
1 -18 -37 0 
1 -105 -89 0 
1 111 100 0 
1 12 32 0 
1 -47 43 0 
1 35 -48 0 
1 -45 18 0 
1 105 15 0 
1 13 -36 0 
1 -107 -60 0 
1 -3 92 0 
1 67 -24 0 
1 -46 78 0 
1 -56 14 0 
1 75 41 0 
1 -93 111 0 
1 27 -3 0 
1 -114 -2 0 
1 86 -103 0 
1 65 91 0 
1 78 62 0 
1 -6 -44 0 
1 66 -16 0 
1 24 -2 0 
1 39 15 0 
1 -88 80 0 
1 11 -52 0 
1 -45 43 0 
1 -43 38 0 
1 78 14 0 
1 -1 -85 0 
1 47 -80 0 
1 -33 16 0 
1 97 88 0 
1 106 -88 0 
1 -107 25 0 
1 -96 -77 0 
1 -12 4 0 
1 29 -93 0 
1 114 63 0 
1 22 -51 0 
1 16 -14 0 
1 -11 19 0 
1 -80 49 0 
1 90 -96 0 
1 -111 -88 0 
1 -44 63 0 
1 59 -110 0 
1 -28 38 0 
1 108 116 0 
1 -20 -41 0 
1 100 10 0 
1 -32 -26 0 
1 -45 12 0 
1 -4 -39 0 
1 -27 83 0 
1 -77 -24 0 
1 -88 -17 0 
1 41 -15 0 
1 116 -14 0 
1 118 61 0 
1 106 -79 0 
1 -10 -96 0 
1 -110 66 0 
1 10 -93 0 
1 17 -103 0 
1 -119 114 0 
1 76 71 0 
1 120 80 0 
1 -77 -117 0 
1 3 55 0 
1 -1 -102 0 
1 118 80 0 
1 19 7 0 
1 -42 53 0 
1 -46 -108 0 
1 108 93 0 
1 -27 -82 0 
1 76 -35 0 
1 86 -43 0 
1 -43 42 0 
1 116 -47 0 
1 106 -32 0 
1 -117 -98 0 
1 -12 -19 0 
1 -18 50 0 
1 85 -74 0 
1 -10 -2 0 
1 72 -88 0 
1 89 117 0 
1 120 50 0 
1 75 -94 0 
1 -81 50 0 
1 1 -61 0 
1 120 19 0 
1 42 119 0 
1 -74 -1 0 
1 34 110 0 
1 -6 -20 0 
1 99 26 0 
1 31 80 0 
1 -119 59 0 
1 -100 79 0 
1 -38 -81 0 
1 37 -56 0 
1 -54 61 0 
1 59 44 0 
1 -114 -68 0 
1 60 17 0 
1 -86 48 0 
1 9 -3 0 
1 98 -91 0 
1 -3 -96 0 
1 64 -116 0 
1 59 41 0 
1 -46 81 0 
1 108 35 0 
1 84 -70 0 
1 -30 -71 0 
